logs/full/feas/full-05-30-0.lp
\ LP format - for model browsing. Use MPS format to capture full model detail.
Minimize
  p0 + p1 + p2 + p3 + p4 + p5
Subject To
 R0: x0,1_4 + x0,2_4 + x0,3_4 + x0,4_4 + x0,5_4 + x1,2_4 + x1,3_4 + x1,4_4
   + x1,5_4 + x2,3_4 + x2,4_4 + x2,5_4 + x3,4_4 + x3,5_4 + x4,5_4 = 1
 R1: x0,1_5 + x0,2_5 + x0,3_5 + x0,4_5 + x0,5_5 + x1,2_5 + x1,3_5 + x1,4_5
   + x1,5_5 + x2,3_5 + x2,4_5 + x2,5_5 + x3,4_5 + x3,5_5 + x4,5_5 = 1
 R2: x0,1_11 + x0,2_11 + x0,3_11 + x0,4_11 + x0,5_11 + x1,2_11 + x1,3_11
   + x1,4_11 + x1,5_11 + x2,3_11 + x2,4_11 + x2,5_11 + x3,4_11 + x3,5_11
   + x4,5_11 = 1
 R3: x0,1_15 + x0,2_15 + x0,3_15 + x0,4_15 + x0,5_15 + x1,2_15 + x1,3_15
   + x1,4_15 + x1,5_15 + x2,3_15 + x2,4_15 + x2,5_15 + x3,4_15 + x3,5_15
   + x4,5_15 = 1
 R4: x0,1_24 + x0,2_24 + x0,3_24 + x0,4_24 + x0,5_24 + x1,2_24 + x1,3_24
   + x1,4_24 + x1,5_24 + x2,3_24 + x2,4_24 + x2,5_24 + x3,4_24 + x3,5_24
   + x4,5_24 = 1
 R5: x0,1_29 + x0,2_29 + x0,3_29 + x0,4_29 + x0,5_29 + x1,2_29 + x1,3_29
   + x1,4_29 + x1,5_29 + x2,3_29 + x2,4_29 + x2,5_29 + x3,4_29 + x3,5_29
   + x4,5_29 = 1
 R6: x0,1_35 + x0,2_35 + x0,3_35 + x0,4_35 + x0,5_35 + x1,2_35 + x1,3_35
   + x1,4_35 + x1,5_35 + x2,3_35 + x2,4_35 + x2,5_35 + x3,4_35 + x3,5_35
   + x4,5_35 = 1
 R7: x0,1_39 + x0,2_39 + x0,3_39 + x0,4_39 + x0,5_39 + x1,2_39 + x1,3_39
   + x1,4_39 + x1,5_39 + x2,3_39 + x2,4_39 + x2,5_39 + x3,4_39 + x3,5_39
   + x4,5_39 = 1
 R8: x0,1_40 + x0,2_40 + x0,3_40 + x0,4_40 + x0,5_40 + x1,2_40 + x1,3_40
   + x1,4_40 + x1,5_40 + x2,3_40 + x2,4_40 + x2,5_40 + x3,4_40 + x3,5_40
   + x4,5_40 = 1
 R9: x0,1_44 + x0,2_44 + x0,3_44 + x0,4_44 + x0,5_44 + x1,2_44 + x1,3_44
   + x1,4_44 + x1,5_44 + x2,3_44 + x2,4_44 + x2,5_44 + x3,4_44 + x3,5_44
   + x4,5_44 = 1
 R10: x0,1_4 + x0,1_5 + x0,1_11 + x0,1_15 + x0,1_24 + x0,1_29 + x0,1_35
   + x0,1_39 + x0,1_40 + x0,1_44 <= 1
 R11: x0,2_4 + x0,2_5 + x0,2_11 + x0,2_15 + x0,2_24 + x0,2_29 + x0,2_35
   + x0,2_39 + x0,2_40 + x0,2_44 <= 1
 R12: x0,3_4 + x0,3_5 + x0,3_11 + x0,3_15 + x0,3_24 + x0,3_29 + x0,3_35
   + x0,3_39 + x0,3_40 + x0,3_44 <= 1
 R13: x0,4_4 + x0,4_5 + x0,4_11 + x0,4_15 + x0,4_24 + x0,4_29 + x0,4_35
   + x0,4_39 + x0,4_40 + x0,4_44 <= 1
 R14: x0,5_4 + x0,5_5 + x0,5_11 + x0,5_15 + x0,5_24 + x0,5_29 + x0,5_35
   + x0,5_39 + x0,5_40 + x0,5_44 <= 1
 R15: x1,2_4 + x1,2_5 + x1,2_11 + x1,2_15 + x1,2_24 + x1,2_29 + x1,2_35
   + x1,2_39 + x1,2_40 + x1,2_44 <= 1
 R16: x1,3_4 + x1,3_5 + x1,3_11 + x1,3_15 + x1,3_24 + x1,3_29 + x1,3_35
   + x1,3_39 + x1,3_40 + x1,3_44 <= 1
 R17: x1,4_4 + x1,4_5 + x1,4_11 + x1,4_15 + x1,4_24 + x1,4_29 + x1,4_35
   + x1,4_39 + x1,4_40 + x1,4_44 <= 1
 R18: x1,5_4 + x1,5_5 + x1,5_11 + x1,5_15 + x1,5_24 + x1,5_29 + x1,5_35
   + x1,5_39 + x1,5_40 + x1,5_44 <= 1
 R19: x2,3_4 + x2,3_5 + x2,3_11 + x2,3_15 + x2,3_24 + x2,3_29 + x2,3_35
   + x2,3_39 + x2,3_40 + x2,3_44 <= 1
 R20: x2,4_4 + x2,4_5 + x2,4_11 + x2,4_15 + x2,4_24 + x2,4_29 + x2,4_35
   + x2,4_39 + x2,4_40 + x2,4_44 <= 1
 R21: x2,5_4 + x2,5_5 + x2,5_11 + x2,5_15 + x2,5_24 + x2,5_29 + x2,5_35
   + x2,5_39 + x2,5_40 + x2,5_44 <= 1
 R22: x3,4_4 + x3,4_5 + x3,4_11 + x3,4_15 + x3,4_24 + x3,4_29 + x3,4_35
   + x3,4_39 + x3,4_40 + x3,4_44 <= 1
 R23: x3,5_4 + x3,5_5 + x3,5_11 + x3,5_15 + x3,5_24 + x3,5_29 + x3,5_35
   + x3,5_39 + x3,5_40 + x3,5_44 <= 1
 R24: x4,5_4 + x4,5_5 + x4,5_11 + x4,5_15 + x4,5_24 + x4,5_29 + x4,5_35
   + x4,5_39 + x4,5_40 + x4,5_44 <= 1
 R25: p0 - p1 <= -1
 R26: - 4 x0,1_4 - p0 + p1 >= 0
 R27: 246 x0,1_4 - p0 + p1 <= 250
 R28: - 5 x0,1_5 - p0 + p1 >= 0
 R29: 246 x0,1_5 - p0 + p1 <= 251
 R30: - 11 x0,1_11 - p0 + p1 >= 0
 R31: 246 x0,1_11 - p0 + p1 <= 257
 R32: - 15 x0,1_15 - p0 + p1 >= 0
 R33: 246 x0,1_15 - p0 + p1 <= 261
 R34: - 24 x0,1_24 - p0 + p1 >= 0
 R35: 246 x0,1_24 - p0 + p1 <= 270
 R36: - 29 x0,1_29 - p0 + p1 >= 0
 R37: 246 x0,1_29 - p0 + p1 <= 275
 R38: - 35 x0,1_35 - p0 + p1 >= 0
 R39: 246 x0,1_35 - p0 + p1 <= 281
 R40: - 39 x0,1_39 - p0 + p1 >= 0
 R41: 246 x0,1_39 - p0 + p1 <= 285
 R42: - 40 x0,1_40 - p0 + p1 >= 0
 R43: 246 x0,1_40 - p0 + p1 <= 286
 R44: - 44 x0,1_44 - p0 + p1 >= 0
 R45: 246 x0,1_44 - p0 + p1 <= 290
 R46: p0 - p2 <= -1
 R47: - 4 x0,2_4 - p0 + p2 >= 0
 R48: 246 x0,2_4 - p0 + p2 <= 250
 R49: - 5 x0,2_5 - p0 + p2 >= 0
 R50: 246 x0,2_5 - p0 + p2 <= 251
 R51: - 11 x0,2_11 - p0 + p2 >= 0
 R52: 246 x0,2_11 - p0 + p2 <= 257
 R53: - 15 x0,2_15 - p0 + p2 >= 0
 R54: 246 x0,2_15 - p0 + p2 <= 261
 R55: - 24 x0,2_24 - p0 + p2 >= 0
 R56: 246 x0,2_24 - p0 + p2 <= 270
 R57: - 29 x0,2_29 - p0 + p2 >= 0
 R58: 246 x0,2_29 - p0 + p2 <= 275
 R59: - 35 x0,2_35 - p0 + p2 >= 0
 R60: 246 x0,2_35 - p0 + p2 <= 281
 R61: - 39 x0,2_39 - p0 + p2 >= 0
 R62: 246 x0,2_39 - p0 + p2 <= 285
 R63: - 40 x0,2_40 - p0 + p2 >= 0
 R64: 246 x0,2_40 - p0 + p2 <= 286
 R65: - 44 x0,2_44 - p0 + p2 >= 0
 R66: 246 x0,2_44 - p0 + p2 <= 290
 R67: p0 - p3 <= -1
 R68: - 4 x0,3_4 - p0 + p3 >= 0
 R69: 246 x0,3_4 - p0 + p3 <= 250
 R70: - 5 x0,3_5 - p0 + p3 >= 0
 R71: 246 x0,3_5 - p0 + p3 <= 251
 R72: - 11 x0,3_11 - p0 + p3 >= 0
 R73: 246 x0,3_11 - p0 + p3 <= 257
 R74: - 15 x0,3_15 - p0 + p3 >= 0
 R75: 246 x0,3_15 - p0 + p3 <= 261
 R76: - 24 x0,3_24 - p0 + p3 >= 0
 R77: 246 x0,3_24 - p0 + p3 <= 270
 R78: - 29 x0,3_29 - p0 + p3 >= 0
 R79: 246 x0,3_29 - p0 + p3 <= 275
 R80: - 35 x0,3_35 - p0 + p3 >= 0
 R81: 246 x0,3_35 - p0 + p3 <= 281
 R82: - 39 x0,3_39 - p0 + p3 >= 0
 R83: 246 x0,3_39 - p0 + p3 <= 285
 R84: - 40 x0,3_40 - p0 + p3 >= 0
 R85: 246 x0,3_40 - p0 + p3 <= 286
 R86: - 44 x0,3_44 - p0 + p3 >= 0
 R87: 246 x0,3_44 - p0 + p3 <= 290
 R88: p0 - p4 <= -1
 R89: - 4 x0,4_4 - p0 + p4 >= 0
 R90: 246 x0,4_4 - p0 + p4 <= 250
 R91: - 5 x0,4_5 - p0 + p4 >= 0
 R92: 246 x0,4_5 - p0 + p4 <= 251
 R93: - 11 x0,4_11 - p0 + p4 >= 0
 R94: 246 x0,4_11 - p0 + p4 <= 257
 R95: - 15 x0,4_15 - p0 + p4 >= 0
 R96: 246 x0,4_15 - p0 + p4 <= 261
 R97: - 24 x0,4_24 - p0 + p4 >= 0
 R98: 246 x0,4_24 - p0 + p4 <= 270
 R99: - 29 x0,4_29 - p0 + p4 >= 0
 R100: 246 x0,4_29 - p0 + p4 <= 275
 R101: - 35 x0,4_35 - p0 + p4 >= 0
 R102: 246 x0,4_35 - p0 + p4 <= 281
 R103: - 39 x0,4_39 - p0 + p4 >= 0
 R104: 246 x0,4_39 - p0 + p4 <= 285
 R105: - 40 x0,4_40 - p0 + p4 >= 0
 R106: 246 x0,4_40 - p0 + p4 <= 286
 R107: - 44 x0,4_44 - p0 + p4 >= 0
 R108: 246 x0,4_44 - p0 + p4 <= 290
 R109: p0 - p5 <= -1
 R110: - 4 x0,5_4 - p0 + p5 >= 0
 R111: 246 x0,5_4 - p0 + p5 <= 250
 R112: - 5 x0,5_5 - p0 + p5 >= 0
 R113: 246 x0,5_5 - p0 + p5 <= 251
 R114: - 11 x0,5_11 - p0 + p5 >= 0
 R115: 246 x0,5_11 - p0 + p5 <= 257
 R116: - 15 x0,5_15 - p0 + p5 >= 0
 R117: 246 x0,5_15 - p0 + p5 <= 261
 R118: - 24 x0,5_24 - p0 + p5 >= 0
 R119: 246 x0,5_24 - p0 + p5 <= 270
 R120: - 29 x0,5_29 - p0 + p5 >= 0
 R121: 246 x0,5_29 - p0 + p5 <= 275
 R122: - 35 x0,5_35 - p0 + p5 >= 0
 R123: 246 x0,5_35 - p0 + p5 <= 281
 R124: - 39 x0,5_39 - p0 + p5 >= 0
 R125: 246 x0,5_39 - p0 + p5 <= 285
 R126: - 40 x0,5_40 - p0 + p5 >= 0
 R127: 246 x0,5_40 - p0 + p5 <= 286
 R128: - 44 x0,5_44 - p0 + p5 >= 0
 R129: 246 x0,5_44 - p0 + p5 <= 290
 R130: p1 - p2 <= -1
 R131: - 4 x1,2_4 - p1 + p2 >= 0
 R132: 246 x1,2_4 - p1 + p2 <= 250
 R133: - 5 x1,2_5 - p1 + p2 >= 0
 R134: 246 x1,2_5 - p1 + p2 <= 251
 R135: - 11 x1,2_11 - p1 + p2 >= 0
 R136: 246 x1,2_11 - p1 + p2 <= 257
 R137: - 15 x1,2_15 - p1 + p2 >= 0
 R138: 246 x1,2_15 - p1 + p2 <= 261
 R139: - 24 x1,2_24 - p1 + p2 >= 0
 R140: 246 x1,2_24 - p1 + p2 <= 270
 R141: - 29 x1,2_29 - p1 + p2 >= 0
 R142: 246 x1,2_29 - p1 + p2 <= 275
 R143: - 35 x1,2_35 - p1 + p2 >= 0
 R144: 246 x1,2_35 - p1 + p2 <= 281
 R145: - 39 x1,2_39 - p1 + p2 >= 0
 R146: 246 x1,2_39 - p1 + p2 <= 285
 R147: - 40 x1,2_40 - p1 + p2 >= 0
 R148: 246 x1,2_40 - p1 + p2 <= 286
 R149: - 44 x1,2_44 - p1 + p2 >= 0
 R150: 246 x1,2_44 - p1 + p2 <= 290
 R151: p1 - p3 <= -1
 R152: - 4 x1,3_4 - p1 + p3 >= 0
 R153: 246 x1,3_4 - p1 + p3 <= 250
 R154: - 5 x1,3_5 - p1 + p3 >= 0
 R155: 246 x1,3_5 - p1 + p3 <= 251
 R156: - 11 x1,3_11 - p1 + p3 >= 0
 R157: 246 x1,3_11 - p1 + p3 <= 257
 R158: - 15 x1,3_15 - p1 + p3 >= 0
 R159: 246 x1,3_15 - p1 + p3 <= 261
 R160: - 24 x1,3_24 - p1 + p3 >= 0
 R161: 246 x1,3_24 - p1 + p3 <= 270
 R162: - 29 x1,3_29 - p1 + p3 >= 0
 R163: 246 x1,3_29 - p1 + p3 <= 275
 R164: - 35 x1,3_35 - p1 + p3 >= 0
 R165: 246 x1,3_35 - p1 + p3 <= 281
 R166: - 39 x1,3_39 - p1 + p3 >= 0
 R167: 246 x1,3_39 - p1 + p3 <= 285
 R168: - 40 x1,3_40 - p1 + p3 >= 0
 R169: 246 x1,3_40 - p1 + p3 <= 286
 R170: - 44 x1,3_44 - p1 + p3 >= 0
 R171: 246 x1,3_44 - p1 + p3 <= 290
 R172: p1 - p4 <= -1
 R173: - 4 x1,4_4 - p1 + p4 >= 0
 R174: 246 x1,4_4 - p1 + p4 <= 250
 R175: - 5 x1,4_5 - p1 + p4 >= 0
 R176: 246 x1,4_5 - p1 + p4 <= 251
 R177: - 11 x1,4_11 - p1 + p4 >= 0
 R178: 246 x1,4_11 - p1 + p4 <= 257
 R179: - 15 x1,4_15 - p1 + p4 >= 0
 R180: 246 x1,4_15 - p1 + p4 <= 261
 R181: - 24 x1,4_24 - p1 + p4 >= 0
 R182: 246 x1,4_24 - p1 + p4 <= 270
 R183: - 29 x1,4_29 - p1 + p4 >= 0
 R184: 246 x1,4_29 - p1 + p4 <= 275
 R185: - 35 x1,4_35 - p1 + p4 >= 0
 R186: 246 x1,4_35 - p1 + p4 <= 281
 R187: - 39 x1,4_39 - p1 + p4 >= 0
 R188: 246 x1,4_39 - p1 + p4 <= 285
 R189: - 40 x1,4_40 - p1 + p4 >= 0
 R190: 246 x1,4_40 - p1 + p4 <= 286
 R191: - 44 x1,4_44 - p1 + p4 >= 0
 R192: 246 x1,4_44 - p1 + p4 <= 290
 R193: p1 - p5 <= -1
 R194: - 4 x1,5_4 - p1 + p5 >= 0
 R195: 246 x1,5_4 - p1 + p5 <= 250
 R196: - 5 x1,5_5 - p1 + p5 >= 0
 R197: 246 x1,5_5 - p1 + p5 <= 251
 R198: - 11 x1,5_11 - p1 + p5 >= 0
 R199: 246 x1,5_11 - p1 + p5 <= 257
 R200: - 15 x1,5_15 - p1 + p5 >= 0
 R201: 246 x1,5_15 - p1 + p5 <= 261
 R202: - 24 x1,5_24 - p1 + p5 >= 0
 R203: 246 x1,5_24 - p1 + p5 <= 270
 R204: - 29 x1,5_29 - p1 + p5 >= 0
 R205: 246 x1,5_29 - p1 + p5 <= 275
 R206: - 35 x1,5_35 - p1 + p5 >= 0
 R207: 246 x1,5_35 - p1 + p5 <= 281
 R208: - 39 x1,5_39 - p1 + p5 >= 0
 R209: 246 x1,5_39 - p1 + p5 <= 285
 R210: - 40 x1,5_40 - p1 + p5 >= 0
 R211: 246 x1,5_40 - p1 + p5 <= 286
 R212: - 44 x1,5_44 - p1 + p5 >= 0
 R213: 246 x1,5_44 - p1 + p5 <= 290
 R214: p2 - p3 <= -1
 R215: - 4 x2,3_4 - p2 + p3 >= 0
 R216: 246 x2,3_4 - p2 + p3 <= 250
 R217: - 5 x2,3_5 - p2 + p3 >= 0
 R218: 246 x2,3_5 - p2 + p3 <= 251
 R219: - 11 x2,3_11 - p2 + p3 >= 0
 R220: 246 x2,3_11 - p2 + p3 <= 257
 R221: - 15 x2,3_15 - p2 + p3 >= 0
 R222: 246 x2,3_15 - p2 + p3 <= 261
 R223: - 24 x2,3_24 - p2 + p3 >= 0
 R224: 246 x2,3_24 - p2 + p3 <= 270
 R225: - 29 x2,3_29 - p2 + p3 >= 0
 R226: 246 x2,3_29 - p2 + p3 <= 275
 R227: - 35 x2,3_35 - p2 + p3 >= 0
 R228: 246 x2,3_35 - p2 + p3 <= 281
 R229: - 39 x2,3_39 - p2 + p3 >= 0
 R230: 246 x2,3_39 - p2 + p3 <= 285
 R231: - 40 x2,3_40 - p2 + p3 >= 0
 R232: 246 x2,3_40 - p2 + p3 <= 286
 R233: - 44 x2,3_44 - p2 + p3 >= 0
 R234: 246 x2,3_44 - p2 + p3 <= 290
 R235: p2 - p4 <= -1
 R236: - 4 x2,4_4 - p2 + p4 >= 0
 R237: 246 x2,4_4 - p2 + p4 <= 250
 R238: - 5 x2,4_5 - p2 + p4 >= 0
 R239: 246 x2,4_5 - p2 + p4 <= 251
 R240: - 11 x2,4_11 - p2 + p4 >= 0
 R241: 246 x2,4_11 - p2 + p4 <= 257
 R242: - 15 x2,4_15 - p2 + p4 >= 0
 R243: 246 x2,4_15 - p2 + p4 <= 261
 R244: - 24 x2,4_24 - p2 + p4 >= 0
 R245: 246 x2,4_24 - p2 + p4 <= 270
 R246: - 29 x2,4_29 - p2 + p4 >= 0
 R247: 246 x2,4_29 - p2 + p4 <= 275
 R248: - 35 x2,4_35 - p2 + p4 >= 0
 R249: 246 x2,4_35 - p2 + p4 <= 281
 R250: - 39 x2,4_39 - p2 + p4 >= 0
 R251: 246 x2,4_39 - p2 + p4 <= 285
 R252: - 40 x2,4_40 - p2 + p4 >= 0
 R253: 246 x2,4_40 - p2 + p4 <= 286
 R254: - 44 x2,4_44 - p2 + p4 >= 0
 R255: 246 x2,4_44 - p2 + p4 <= 290
 R256: p2 - p5 <= -1
 R257: - 4 x2,5_4 - p2 + p5 >= 0
 R258: 246 x2,5_4 - p2 + p5 <= 250
 R259: - 5 x2,5_5 - p2 + p5 >= 0
 R260: 246 x2,5_5 - p2 + p5 <= 251
 R261: - 11 x2,5_11 - p2 + p5 >= 0
 R262: 246 x2,5_11 - p2 + p5 <= 257
 R263: - 15 x2,5_15 - p2 + p5 >= 0
 R264: 246 x2,5_15 - p2 + p5 <= 261
 R265: - 24 x2,5_24 - p2 + p5 >= 0
 R266: 246 x2,5_24 - p2 + p5 <= 270
 R267: - 29 x2,5_29 - p2 + p5 >= 0
 R268: 246 x2,5_29 - p2 + p5 <= 275
 R269: - 35 x2,5_35 - p2 + p5 >= 0
 R270: 246 x2,5_35 - p2 + p5 <= 281
 R271: - 39 x2,5_39 - p2 + p5 >= 0
 R272: 246 x2,5_39 - p2 + p5 <= 285
 R273: - 40 x2,5_40 - p2 + p5 >= 0
 R274: 246 x2,5_40 - p2 + p5 <= 286
 R275: - 44 x2,5_44 - p2 + p5 >= 0
 R276: 246 x2,5_44 - p2 + p5 <= 290
 R277: p3 - p4 <= -1
 R278: - 4 x3,4_4 - p3 + p4 >= 0
 R279: 246 x3,4_4 - p3 + p4 <= 250
 R280: - 5 x3,4_5 - p3 + p4 >= 0
 R281: 246 x3,4_5 - p3 + p4 <= 251
 R282: - 11 x3,4_11 - p3 + p4 >= 0
 R283: 246 x3,4_11 - p3 + p4 <= 257
 R284: - 15 x3,4_15 - p3 + p4 >= 0
 R285: 246 x3,4_15 - p3 + p4 <= 261
 R286: - 24 x3,4_24 - p3 + p4 >= 0
 R287: 246 x3,4_24 - p3 + p4 <= 270
 R288: - 29 x3,4_29 - p3 + p4 >= 0
 R289: 246 x3,4_29 - p3 + p4 <= 275
 R290: - 35 x3,4_35 - p3 + p4 >= 0
 R291: 246 x3,4_35 - p3 + p4 <= 281
 R292: - 39 x3,4_39 - p3 + p4 >= 0
 R293: 246 x3,4_39 - p3 + p4 <= 285
 R294: - 40 x3,4_40 - p3 + p4 >= 0
 R295: 246 x3,4_40 - p3 + p4 <= 286
 R296: - 44 x3,4_44 - p3 + p4 >= 0
 R297: 246 x3,4_44 - p3 + p4 <= 290
 R298: p3 - p5 <= -1
 R299: - 4 x3,5_4 - p3 + p5 >= 0
 R300: 246 x3,5_4 - p3 + p5 <= 250
 R301: - 5 x3,5_5 - p3 + p5 >= 0
 R302: 246 x3,5_5 - p3 + p5 <= 251
 R303: - 11 x3,5_11 - p3 + p5 >= 0
 R304: 246 x3,5_11 - p3 + p5 <= 257
 R305: - 15 x3,5_15 - p3 + p5 >= 0
 R306: 246 x3,5_15 - p3 + p5 <= 261
 R307: - 24 x3,5_24 - p3 + p5 >= 0
 R308: 246 x3,5_24 - p3 + p5 <= 270
 R309: - 29 x3,5_29 - p3 + p5 >= 0
 R310: 246 x3,5_29 - p3 + p5 <= 275
 R311: - 35 x3,5_35 - p3 + p5 >= 0
 R312: 246 x3,5_35 - p3 + p5 <= 281
 R313: - 39 x3,5_39 - p3 + p5 >= 0
 R314: 246 x3,5_39 - p3 + p5 <= 285
 R315: - 40 x3,5_40 - p3 + p5 >= 0
 R316: 246 x3,5_40 - p3 + p5 <= 286
 R317: - 44 x3,5_44 - p3 + p5 >= 0
 R318: 246 x3,5_44 - p3 + p5 <= 290
 R319: p4 - p5 <= -1
 R320: - 4 x4,5_4 - p4 + p5 >= 0
 R321: 246 x4,5_4 - p4 + p5 <= 250
 R322: - 5 x4,5_5 - p4 + p5 >= 0
 R323: 246 x4,5_5 - p4 + p5 <= 251
 R324: - 11 x4,5_11 - p4 + p5 >= 0
 R325: 246 x4,5_11 - p4 + p5 <= 257
 R326: - 15 x4,5_15 - p4 + p5 >= 0
 R327: 246 x4,5_15 - p4 + p5 <= 261
 R328: - 24 x4,5_24 - p4 + p5 >= 0
 R329: 246 x4,5_24 - p4 + p5 <= 270
 R330: - 29 x4,5_29 - p4 + p5 >= 0
 R331: 246 x4,5_29 - p4 + p5 <= 275
 R332: - 35 x4,5_35 - p4 + p5 >= 0
 R333: 246 x4,5_35 - p4 + p5 <= 281
 R334: - 39 x4,5_39 - p4 + p5 >= 0
 R335: 246 x4,5_39 - p4 + p5 <= 285
 R336: - 40 x4,5_40 - p4 + p5 >= 0
 R337: 246 x4,5_40 - p4 + p5 <= 286
 R338: - 44 x4,5_44 - p4 + p5 >= 0
 R339: 246 x4,5_44 - p4 + p5 <= 290
Bounds
Binaries
 x0,1_4 x0,1_5 x0,1_11 x0,1_15 x0,1_24 x0,1_29 x0,1_35 x0,1_39 x0,1_40
 x0,1_44 x0,2_4 x0,2_5 x0,2_11 x0,2_15 x0,2_24 x0,2_29 x0,2_35 x0,2_39
 x0,2_40 x0,2_44 x0,3_4 x0,3_5 x0,3_11 x0,3_15 x0,3_24 x0,3_29 x0,3_35
 x0,3_39 x0,3_40 x0,3_44 x0,4_4 x0,4_5 x0,4_11 x0,4_15 x0,4_24 x0,4_29
 x0,4_35 x0,4_39 x0,4_40 x0,4_44 x0,5_4 x0,5_5 x0,5_11 x0,5_15 x0,5_24
 x0,5_29 x0,5_35 x0,5_39 x0,5_40 x0,5_44 x1,2_4 x1,2_5 x1,2_11 x1,2_15
 x1,2_24 x1,2_29 x1,2_35 x1,2_39 x1,2_40 x1,2_44 x1,3_4 x1,3_5 x1,3_11
 x1,3_15 x1,3_24 x1,3_29 x1,3_35 x1,3_39 x1,3_40 x1,3_44 x1,4_4 x1,4_5
 x1,4_11 x1,4_15 x1,4_24 x1,4_29 x1,4_35 x1,4_39 x1,4_40 x1,4_44 x1,5_4
 x1,5_5 x1,5_11 x1,5_15 x1,5_24 x1,5_29 x1,5_35 x1,5_39 x1,5_40 x1,5_44
 x2,3_4 x2,3_5 x2,3_11 x2,3_15 x2,3_24 x2,3_29 x2,3_35 x2,3_39 x2,3_40
 x2,3_44 x2,4_4 x2,4_5 x2,4_11 x2,4_15 x2,4_24 x2,4_29 x2,4_35 x2,4_39
 x2,4_40 x2,4_44 x2,5_4 x2,5_5 x2,5_11 x2,5_15 x2,5_24 x2,5_29 x2,5_35
 x2,5_39 x2,5_40 x2,5_44 x3,4_4 x3,4_5 x3,4_11 x3,4_15 x3,4_24 x3,4_29
 x3,4_35 x3,4_39 x3,4_40 x3,4_44 x3,5_4 x3,5_5 x3,5_11 x3,5_15 x3,5_24
 x3,5_29 x3,5_35 x3,5_39 x3,5_40 x3,5_44 x4,5_4 x4,5_5 x4,5_11 x4,5_15
 x4,5_24 x4,5_29 x4,5_35 x4,5_39 x4,5_40 x4,5_44
Generals
 p0 p1 p2 p3 p4 p5
End
