logs/full/feas/full-05-30-0.sol
# Objective value = 103
x0,1_4 0
x0,1_5 0
x0,1_11 0
x0,1_15 0
x0,1_24 0
x0,1_29 0
x0,1_35 0
x0,1_39 0
x0,1_40 0
x0,1_44 0
x0,2_4 1
x0,2_5 0
x0,2_11 0
x0,2_15 0
x0,2_24 0
x0,2_29 0
x0,2_35 0
x0,2_39 0
x0,2_40 0
x0,2_44 0
x0,3_4 0
x0,3_5 0
x0,3_11 0
x0,3_15 1
x0,3_24 0
x0,3_29 0
x0,3_35 0
x0,3_39 0
x0,3_40 0
x0,3_44 0
x0,4_4 0
x0,4_5 0
x0,4_11 0
x0,4_15 0
x0,4_24 0
x0,4_29 0
x0,4_35 0
x0,4_39 1
x0,4_40 0
x0,4_44 0
x0,5_4 0
x0,5_5 0
x0,5_11 0
x0,5_15 0
x0,5_24 0
x0,5_29 0
x0,5_35 0
x0,5_39 0
x0,5_40 0
x0,5_44 1
x1,2_4 0
x1,2_5 0
x1,2_11 0
x1,2_15 0
x1,2_24 0
x1,2_29 0
x1,2_35 0
x1,2_39 0
x1,2_40 0
x1,2_44 0
x1,3_4 0
x1,3_5 0
x1,3_11 0
x1,3_15 0
x1,3_24 0
x1,3_29 0
x1,3_35 0
x1,3_39 0
x1,3_40 0
x1,3_44 0
x1,4_4 0
x1,4_5 0
x1,4_11 0
x1,4_15 0
x1,4_24 0
x1,4_29 0
x1,4_35 0
x1,4_39 0
x1,4_40 0
x1,4_44 0
x1,5_4 0
x1,5_5 0
x1,5_11 0
x1,5_15 0
x1,5_24 0
x1,5_29 0
x1,5_35 0
x1,5_39 0
x1,5_40 0
x1,5_44 0
x2,3_4 0
x2,3_5 0
x2,3_11 1
x2,3_15 0
x2,3_24 0
x2,3_29 0
x2,3_35 0
x2,3_39 0
x2,3_40 0
x2,3_44 0
x2,4_4 0
x2,4_5 0
x2,4_11 0
x2,4_15 0
x2,4_24 0
x2,4_29 0
x2,4_35 1
x2,4_39 0
x2,4_40 0
x2,4_44 0
x2,5_4 0
x2,5_5 0
x2,5_11 0
x2,5_15 0
x2,5_24 0
x2,5_29 0
x2,5_35 0
x2,5_39 0
x2,5_40 1
x2,5_44 0
x3,4_4 0
x3,4_5 0
x3,4_11 0
x3,4_15 0
x3,4_24 1
x3,4_29 0
x3,4_35 0
x3,4_39 0
x3,4_40 0
x3,4_44 0
x3,5_4 0
x3,5_5 0
x3,5_11 0
x3,5_15 0
x3,5_24 0
x3,5_29 1
x3,5_35 0
x3,5_39 0
x3,5_40 0
x3,5_44 0
x4,5_4 0
x4,5_5 1
x4,5_11 0
x4,5_15 0
x4,5_24 0
x4,5_29 0
x4,5_35 0
x4,5_39 0
x4,5_40 0
x4,5_44 0
p0 0
p1 1
p2 4
p3 15
p4 39
p5 44
